Instance Name : r110
Date : 2022-07-18
Solution
Route 1 : 14 44 16 86 38 43 15 42 58
Route 2 : 27 88 62 19 11 63 90 32 10
Route 3 : 53 94 40 26 54 55 25
Route 4 : 21 72 73 57 87 97 37 100 91 92 13
Route 5 : 95 59 98 5 84 61 85 93 99 96
Route 6 : 52 82 7 47 36 49 64 48
Route 7 : 28 12 76 77 29 79 3 50
Route 8 : 69 31 70 30 51 81 78 34 24 80 68
Route 9 : 2 41 22 74 75 56 23 67 39 4
Route 10 : 6 18 83 8 46 45 17 60 89
Route 11 : 33 9 35 71 65 66 20 1
